c Sudoku solution
p cnf 729 0
119 0
128 0
133 0
221 0
252 0
355 0
422 0
449 0
473 0
529 0
551 0
565 0
574 0
582 0
611 0
654 0
666 0
642 0
543 0
623 0
678 0
776 0
791 0
481 0
832 0
931 0
739 0
762 0
312 0
844 0
861 0
898 0
924 0
784 0
945 0
993 0
972 0
192 0
164 0
157 0
747 0
725 0
458 0
467 0
538 0
753 0
718 0
813 0
968 0
186 0
175 0
371 0
141 0
885 0
215 0
414 0
277 0
879 0
987 0
827 0
916 0
856 0
959 0
517 0
436 0
635 0
495 0
596 0
326 0
234 0
337 0
299 0
394 0
246 0
348 0
288 0
383 0
263 0
369 0
689 0
697 0
